sat
(:max-memory          18.24
 :memory              17.69
 :num-allocs          4335645
 :rlimit-count        67347
 :sls-constraints     552
 :sls-ddfw-flips      5182.00
 :sls-ddfw-restarts   2
 :sls-ddfw-shifts     2855.00
 :sls.euf-conflict    552
 :solve-eqs-elim-vars 4
 :solve-eqs-steps     8
 :time                0.03
 :total-time          0.03)
